(set-option :produce-models true)
(set-logic QF_UF)
(declare-fun p32() Bool)
(declare-fun p19() Bool)
(declare-fun p14() Bool)
(declare-fun p2() Bool)
(declare-fun p12() Bool)
(declare-fun p6() Bool)
(declare-fun p1() Bool)
(declare-fun p36() Bool)
(declare-fun p26() Bool)
(declare-fun p23() Bool)
(declare-fun p31() Bool)
(declare-fun p28() Bool)
(declare-fun p37() Bool)
(declare-fun p11() Bool)
(declare-fun p4() Bool)
(declare-fun p15() Bool)
(declare-fun p7() Bool)
(declare-fun p21() Bool)
(declare-fun p3() Bool)
(declare-fun p0() Bool)
(declare-fun p34() Bool)
(declare-fun p38() Bool)
(declare-fun p9() Bool)
(declare-fun p16() Bool)
(declare-fun p20() Bool)
(declare-fun p33() Bool)
(declare-fun p10() Bool)
(declare-fun p39() Bool)
(declare-fun p29() Bool)
(declare-fun p17() Bool)
(declare-fun p18() Bool)
(declare-fun p24() Bool)
(declare-fun p22() Bool)
(declare-fun p5() Bool)
(declare-fun p27() Bool)
(declare-fun p30() Bool)
(declare-fun p25() Bool)
(declare-fun p35() Bool)
(declare-fun p8() Bool)
(declare-fun p13() Bool)
(assert
(and (or (not p32) p19 (not p14) p2 (not p12)) (or p6 p1 (not p36) (not p26) p23) (or p31 p28 (not p37) p11 p4) (or (not p12) (not p15) (not p7) p21 (not p3)) (or p36 (not p0) (not p34) (not p1) p14) (or p2 p0 p26 p38 p9) (or p23 p9 (not p2) (not p16) (not p19)) (or (not p20) p28 (not p33) (not p34) (not p3)) (or (not p11) (not p10) p0 p12 (not p39)) (or (not p32) (not p19) (not p21) (not p6) (not p29)) (or (not p17) (not p7) (not p18) p11 (not p24)) (or (not p21) (not p31) p7 (not p34) p22) (or p0 p38 (not p2) p10 (not p32)) (or (not p31) (not p1) p4 p23 p17) (or (not p38) (not p36) p6 p5 p1) (or p27 p5 p30 p12 p19) (or p6 p22 (not p4) p33 (not p1)) (or (not p22) p25 p16 p35 p6) (or p7 p2 p24 (not p3) (not p26)) (or (not p18) (not p20) p6 p36 (not p17)) (or p9 (not p39) p12 p36 p27) (or (not p30) (not p35) p30 p29 p11) (or p4 p0 p22 p22 (not p8)) (or (not p9) (not p18) (not p24) p1 p22) (or p39 (not p21) p14 p5 (not p20)) (or (not p26) p24 p16 (not p27) (not p9)) (or (not p26) (not p12) p1 (not p11) p11) (or p37 (not p25) (not p21) (not p17) p0) (or p32 p24 (not p16) (not p25) p16) (or (not p23) p30 (not p3) (not p34) p16) (or p24 p9 (not p9) (not p15) (not p6)) (or (not p13) (not p4) (not p10) (not p1) (not p35)) (or p15 (not p17) p15 p35 (not p32)) (or (not p39) p29 (not p3) (not p28) p30) (or p38 (not p17) p16 (not p35) (not p20)) (or p14 (not p19) (not p8) (not p17) p2) (or p27 (not p38) (not p12) (not p39) p1) (or p0 (not p38) (not p3) p13 p32) (or p11 p14 (not p24) p39 p10) (or p28 (not p2) p9 p12 (not p2)) (or (not p30) (not p22) p38 (not p28) (not p11)) (or p17 (not p10) p26 (not p29) (not p17)) (or p27 p34 p27 (not p30) (not p20)) (or (not p23) (not p24) p15 (not p20) p25) (or (not p17) p10 p36 p30 p28) (or p28 (not p24) (not p7) (not p7) p24) (or p2 p25 p29 p6 (not p37)) (or (not p39) (not p11) p37 (not p4) p29) (or (not p26) (not p9) (not p7) p38 p1) (or (not p15) (not p15) (not p5) (not p7) (not p13)) (or p16 p15 (not p24) (not p1) p31) (or p15 (not p25) p23 p16 p16) (or p3 p38 p18 (not p6) p0) (or (not p28) (not p34) (not p25) p18 (not p28)) (or p1 p27 (not p20) p5 (not p27)) (or (not p30) (not p9) (not p6) (not p39) p0) (or p8 p25 (not p38) p13 p4) (or (not p25) (not p11) (not p0) (not p30) (not p35)) (or (not p0) p0 p26 p28 p30) (or p12 (not p9) (not p13) p1 p19) (or p35 p24 (not p30) p36 p29) (or (not p18) (not p15) (not p6) (not p33) p21) (or (not p33) p27 (not p21) p8 p17) (or (not p9) p16 p9 p11 (not p2)) (or p39 p24 p27 p4 (not p11)) (or (not p26) (not p0) p25 (not p30) (not p9)) (or (not p32) (not p13) p12 (not p6) (not p28)) (or p33 p36 (not p29) p7 (not p20)) (or (not p31) p13 (not p29) (not p21) p30) (or (not p1) (not p25) (not p13) p19 (not p5)) (or p1 (not p15) p30 (not p37) p7) (or p2 (not p30) p1 (not p24) p2) (or (not p18) p2 (not p23) (not p19) (not p21)) (or p7 (not p35) p8 p15 p3) (or (not p21) p20 p3 (not p3) (not p29)) (or (not p39) p9 (not p3) p35 p17) (or p22 p37 p21 (not p39) (not p9)) (or (not p7) p14 (not p30) p8 p38) (or (not p39) p7 (not p3) (not p12) (not p30)) (or (not p21) (not p26) (not p39) p18 p19) (or p5 (not p35) (not p36) (not p1) p5) (or (not p23) (not p27) p31 p2 p23) (or (not p9) (not p3) p22 p32 p24) (or (not p36) (not p33) p1 p11 p7) (or p0 (not p36) (not p5) (not p30) (not p4)) (or (not p28) (not p4) (not p11) (not p10) (not p15)) (or p14 p0 (not p33) p16 (not p2)) (or (not p1) p30 p35 p38 p8) (or (not p22) p36 (not p23) (not p26) (not p6)) (or p34 p22 p32 p26 p33) (or (not p29) (not p0) p24 (not p12) p29) (or p15 (not p6) (not p17) p3 (not p19)) (or (not p16) (not p22) (not p16) (not p4) (not p8)) (or p1 (not p38) p27 p30 p0) (or (not p32) (not p22) p5 (not p27) p32) (or p5 (not p5) p17 (not p25) p1) (or (not p12) p29 p24 p0 p31) (or p36 p39 p18 p28 (not p19)) (or p23 (not p30) p20 p32 (not p38)) (or (not p26) (not p14) p7 (not p10) p28) (or p12 p32 (not p34) (not p6) p25) (or (not p18) (not p22) (not p18) p10 (not p26)) (or (not p12) p15 p0 p5 p23) (or p20 (not p21) p6 (not p12) (not p6)) (or (not p26) (not p34) (not p22) p29 (not p8)) (or (not p31) (not p3) (not p20) p24 p16) (or (not p20) (not p10) (not p30) (not p22) p17) (or (not p23) (not p6) p25 p35 (not p4)) (or p18 p5 (not p32) p12 (not p34)) (or (not p21) p32 (not p27) p5 (not p8)) (or p39 p29 p37 (not p12) (not p17)) (or (not p34) p39 (not p8) p35 p24) (or p4 p9 (not p14) p30 p1) (or (not p20) p32 p33 p30 p21) (or (not p30) p0 p15 (not p28) (not p27)) (or p12 p16 (not p24) (not p18) (not p12)) (or (not p3) (not p29) (not p10) (not p23) p28) (or p9 (not p22) p32 (not p19) p1) (or p15 (not p35) p7 (not p19) (not p10)) (or p6 p11 p2 p18 p19) (or p6 (not p1) (not p37) (not p16) p24) (or (not p19) (not p5) p36 p35 p23) (or (not p14) p9 p8 (not p32) p20) (or (not p17) (not p38) p21 p3 (not p35)) (or p19 p6 p35 (not p19) (not p7)) (or p25 p7 (not p28) p22 (not p29)) (or (not p17) (not p29) p6 (not p38) p38) (or p30 p5 (not p22) (not p39) p15) (or p35 (not p3) p32 p37 (not p34)) (or (not p23) (not p6) p33 p2 (not p33)) (or p0 (not p8) p4 (not p36) (not p32)) (or p29 (not p13) p28 p7 (not p0)) (or (not p13) (not p13) (not p13) (not p38) (not p37)) (or (not p39) p39 p24 p14 (not p4)) (or (not p25) (not p3) (not p10) (not p35) p37) (or p38 (not p36) p26 (not p11) p18) (or (not p2) (not p27) (not p9) p22 (not p8)) (or p20 (not p14) (not p18) (not p12) (not p3)) (or (not p37) (not p6) (not p25) p26 (not p34)) (or p13 (not p4) p29 (not p16) p20) (or p2 p4 p24 p22 (not p21)) (or (not p18) p27 p4 (not p11) (not p26)) (or p1 p29 (not p21) p33 (not p25)) (or p34 (not p22) (not p28) (not p26) (not p16)) (or p25 (not p14) (not p19) (not p25) (not p10)) (or p26 (not p3) (not p8) p1 (not p4)) (or (not p35) (not p36) p30 (not p32) (not p2)) (or p37 p3 (not p31) p25 p10) (or p33 p21 (not p28) p30 (not p4)) (or p9 (not p2) (not p10) (not p6) (not p22)) (or p30 p39 (not p36) p35 p22) (or (not p0) (not p29) p15 p15 (not p28)) (or p21 p12 p27 (not p11) (not p21)) (or (not p16) p37 (not p31) (not p37) p18) (or (not p21) (not p32) p37 (not p36) (not p7)) (or p13 p36 (not p4) (not p7) p23) (or p39 (not p3) p33 p8 (not p36)) (or (not p22) p6 (not p31) p29 (not p39)) (or p33 (not p21) (not p36) (not p36) (not p31)) (or (not p7) (not p5) (not p20) (not p9) (not p13)) (or p22 (not p6) (not p31) p21 p31) (or p9 p32 p36 (not p12) (not p21)) (or p16 p29 (not p25) p15 p4) (or p6 (not p22) p32 (not p27) (not p11)) (or p15 (not p39) (not p4) (not p34) p31) (or (not p12) p25 (not p18) p36 p38) (or p11 p22 (not p16) p3 (not p30)) (or (not p4) (not p29) (not p18) (not p10) (not p27)) (or (not p22) p0 (not p2) p34 (not p32)) (or (not p27) (not p14) (not p30) p15 (not p33)) (or p18 (not p22) p31 (not p28) p14) (or (not p11) (not p22) (not p26) p21 (not p31)) (or (not p17) p23 p19 p3 p35) (or (not p34) (not p1) (not p20) (not p29) p24) (or p38 (not p20) p8 (not p15) (not p35)) (or p16 (not p10) (not p24) (not p3) (not p24)) (or p18 p15 p13 (not p30) p2) (or p11 p39 (not p33) (not p22) p1) (or p3 (not p18) (not p23) (not p9) (not p18)) (or p26 (not p5) (not p2) (not p11) (not p29)) (or (not p6) (not p15) p15 p22 p23) (or (not p6) p22 p15 (not p26) p10) (or p33 (not p1) p2 p10 p26) (or (not p19) (not p24) (not p22) p25 p24) (or (not p6) (not p10) p13 p23 p9) (or p19 p10 p6 (not p12) p13) (or p15 (not p24) (not p19) (not p11) p18) (or (not p17) (not p5) p18 (not p25) p35) (or p25 p27 p15 (not p37) p3) (or (not p11) p31 p32 p14 p27) (or (not p20) (not p10) (not p36) p9 (not p24)) (or (not p21) (not p9) p8 (not p20) (not p10)) (or (not p27) p35 (not p27) p5 (not p3)) (or (not p29) (not p26) p37 (not p38) p13) (or p9 p10 p38 (not p5) p7) (or (not p25) p12 (not p22) p7 (not p17)) (or (not p22) (not p25) (not p18) p29 p19) (or p13 p1 (not p21) (not p8) (not p14)) (or (not p14) p30 p38 (not p17) (not p29)) (or p16 (not p12) p35 p11 p21) (or p3 p14 p37 (not p12) p39) (or p22 p26 (not p20) (not p5) p5) (or (not p8) p13 p5 (not p24) p15) (or p31 p32 (not p37) p0 (not p15)) (or (not p4) (not p2) p5 (not p39) (not p35)) (or p8 p16 p31 (not p16) p38) (or (not p28) p6 (not p2) p34 (not p10)) (or (not p17) p24 (not p30) (not p10) p4) (or (not p2) (not p15) (not p24) p24 (not p31)) (or p29 p17 p21 p8 (not p31)) (or (not p20) p14 (not p15) p2 p7) (or p38 (not p34) p30 (not p29) (not p25)) (or p6 (not p9) (not p39) p3 (not p2)) (or p13 (not p12) (not p18) (not p8) p32) (or (not p12) (not p4) (not p14) p6 (not p19)) (or p4 p7 (not p27) (not p29) p27) (or (not p5) p23 p33 p15 (not p24)) (or (not p34) p23 (not p13) p4 (not p29)) (or p8 p13 (not p31) (not p26) p25) (or p15 p36 (not p4) (not p30) p27) (or (not p4) (not p17) (not p10) (not p14) p26) (or p29 (not p14) p33 (not p37) (not p5)) (or p12 p7 (not p0) (not p9) (not p4)) (or p28 p13 p20 (not p3) p32) (or (not p13) (not p6) (not p13) (not p34) p8) (or p24 p15 p8 p5 p21) (or p0 p28 p39 p25 p37) (or (not p27) (not p27) (not p19) p26 (not p22)) (or (not p13) p17 p11 p28 (not p4)) (or p37 p9 p20 (not p5) p22) (or p39 p5 (not p31) (not p17) p6) (or (not p33) (not p7) p39 p28 p35) (or p19 (not p32) (not p15) p18 (not p38)) (or p11 (not p12) p31 p34 p11) (or p34 p31 (not p22) (not p9) (not p18)) (or (not p36) (not p14) (not p1) p35 (not p2)) (or p23 p33 p24 (not p5) (not p39)) (or p9 (not p35) p18 p39 p39) (or p23 (not p30) p7 p22 p18) (or (not p0) (not p4) (not p27) p36 p15) (or p5 (not p3) p26 (not p29) p36) (or p27 (not p36) p35 p21 p11) (or (not p16) (not p36) (not p34) p0 (not p29)) (or (not p15) p38 p39 (not p19) (not p2)) (or p4 p37 (not p32) p2 (not p9)) (or (not p34) (not p10) (not p31) p23 p21) (or p18 p38 (not p28) (not p10) (not p28)) (or p15 (not p24) p33 p14 p8) (or (not p22) p5 (not p17) (not p17) (not p7)) (or (not p16) (not p9) (not p24) p17 (not p20)) (or (not p12) p3 p20 (not p21) p31) (or (not p5) p37 (not p22) p10 (not p27)) (or (not p21) (not p8) (not p37) p7 (not p3)) (or p32 (not p23) (not p16) (not p7) (not p9)) (or p23 (not p33) p29 (not p0) p0) (or (not p39) p20 (not p37) p2 (not p27)) (or (not p16) p25 (not p36) p14 (not p36)) (or p28 p19 p3 (not p35) p7) (or p1 p14 (not p9) (not p32) (not p10)) (or (not p22) p0 p2 p31 p38) (or p33 (not p17) p3 (not p2) p39) (or p1 (not p7) p19 p7 (not p27)) (or (not p33) p15 (not p25) p32 (not p30)) (or (not p33) (not p8) p11 p1 (not p18)) (or (not p4) (not p18) (not p12) (not p22) (not p26)) (or p21 p16 (not p28) (not p18) (not p31)) (or p30 p8 (not p38) p20 (not p35)) (or p37 p37 p35 (not p26) (not p34)) (or p30 p0 (not p1) p9 p28) (or p25 (not p29) p8 p23 (not p8)) (or (not p10) (not p17) (not p11) p7 p24) (or (not p33) p18 p11 p28 (not p6)) (or (not p23) (not p13) (not p28) (not p7) p13) (or p9 p29 p30 p32 (not p16)) (or (not p13) p8 (not p10) p39 p8) (or p16 (not p30) (not p16) p17 (not p4)) (or (not p12) p0 (not p6) (not p14) p31) (or (not p24) p34 (not p27) p33 (not p5)) (or p15 (not p16) (not p24) p34 (not p1)) (or p23 (not p13) p6 (not p9) (not p3)) (or (not p5) (not p2) (not p9) (not p23) (not p16)) (or p9 p11 p18 (not p7) (not p16)) (or p22 p22 (not p23) (not p39) (not p10)) (or (not p22) p36 p27 p25 (not p39)) (or p32 p38 p4 p37 (not p18)) (or p24 (not p14) (not p16) p24 p19) (or p17 p28 (not p6) p3 p7) (or (not p10) p28 (not p16) (not p38) (not p0)) (or p16 p18 p26 (not p38) (not p25)) (or p32 (not p20) p16 p13 p25) (or p0 p28 p8 (not p5) p18) (or (not p23) (not p13) (not p32) p25 p21) (or p37 p6 (not p39) p3 (not p24)) (or p5 (not p29) p38 (not p12) p9) (or p32 p25 (not p22) (not p24) (not p32)) (or (not p20) p36 (not p28) p4 p5) (or p17 p1 p0 (not p6) p0) (or (not p17) p27 p7 (not p33) (not p6)) (or (not p31) p13 (not p10) p37 p22) (or (not p8) p0 (not p38) p11 p5) (or p20 p3 p21 p8 (not p13)) (or (not p4) (not p12) p29 (not p35) p37) (or p1 (not p26) p2 p34 p23) (or p10 p6 (not p35) p30 p20) (or p28 p28 p13 (not p28) p7) (or (not p12) (not p0) p17 (not p29) (not p18)) (or (not p21) (not p7) (not p13) (not p2) (not p36)) (or p13 (not p13) (not p29) p3 (not p35)) (or (not p28) p31 p30 p4 (not p9)) (or p5 p26 p17 p18 p36) (or (not p16) (not p33) (not p30) p18 p7) (or p9 p11 (not p13) p0 p17) (or (not p23) p2 (not p23) (not p38) (not p17)) (or (not p34) p26 (not p17) p18 p12) (or (not p28) (not p19) (not p35) (not p5) (not p36)) (or p5 p22 p7 p6 (not p20)) (or (not p32) (not p37) (not p19) (not p20) p29) (or p25 p31 (not p5) p35 (not p22)) (or p5 (not p11) p33 p12 p29) (or p26 p31 p31 (not p34) (not p10)) (or (not p34) (not p37) p28 (not p30) (not p37)) (or p13 (not p3) (not p37) (not p23) p30) (or (not p0) p10 p31 p38 p25) (or (not p35) p0 p32 (not p29) (not p15)) (or (not p7) (not p5) (not p17) p20 p19) (or (not p37) (not p25) p9 p21 p28) (or p1 (not p39) p11 p7 p17) (or p15 p7 p4 (not p11) p9) (or (not p38) (not p24) (not p22) (not p12) p35) (or p10 (not p33) p20 p27 p2) (or (not p9) p24 (not p21) p23 (not p7)) (or (not p32) (not p11) (not p15) (not p32) (not p13)) (or (not p14) (not p38) p15 (not p13) p32) (or p5 p11 (not p14) (not p8) p34) (or p25 p30 p8 p34 p36) (or p4 p27 p21 p31 p14) (or p0 (not p25) p31 (not p14) p28) (or p39 p0 p1 (not p15) p21) (or (not p29) (not p4) (not p23) (not p38) p37) (or (not p18) p39 p35 p28 p35) (or (not p6) p12 (not p18) p39 p35) (or p19 (not p4) p5 p23 (not p22)) (or (not p24) p3 (not p18) (not p22) (not p10)) (or (not p32) p14 (not p10) (not p17) p37) (or (not p14) p0 (not p5) (not p10) (not p37)) (or (not p14) p17 p31 (not p38) p13) (or p0 p36 (not p21) p27 p3) (or (not p0) p38 (not p39) p31 p12) (or (not p27) (not p26) p30 (not p30) p30) (or p38 p39 p4 p29 (not p39)) (or p7 p35 p1 (not p17) (not p15)) (or p10 (not p1) (not p23) (not p26) (not p14)) (or p16 p29 p6 p17 (not p19)) (or (not p24) p39 (not p35) (not p6) p19) (or (not p15) (not p20) (not p10) (not p12) (not p19)) (or (not p36) p29 (not p31) p7 p8) (or p9 (not p32) (not p31) p32 (not p3)) (or p12 p5 p9 p8 p31) (or (not p0) p13 p29 (not p32) (not p28)) (or (not p21) (not p28) p33 p17 (not p25)) (or p39 p12 (not p35) p13 p39) (or p12 p37 (not p22) p37 (not p17)) (or p7 p15 (not p12) (not p7) (not p34)) (or (not p8) p11 p33 (not p22) p0) (or p31 p5 (not p18) (not p28) p30) (or (not p10) p13 p14 p26 (not p34)) (or (not p21) (not p9) p0 (not p19) (not p26)) (or p30 p14 p23 (not p25) (not p23)) (or (not p0) (not p11) (not p39) p2 (not p18)) (or (not p38) (not p34) (not p18) p28 p38) (or (not p17) (not p3) (not p27) p23 (not p22)) (or (not p19) (not p16) (not p30) (not p9) (not p0)) (or (not p7) p36 p16 (not p27) (not p32)) (or p39 p22 (not p36) (not p35) p38) (or (not p28) (not p3) (not p23) (not p27) p4) (or p25 (not p25) p17 p16 p20) (or (not p16) p16 (not p32) (not p24) (not p16)) (or p33 (not p29) (not p9) (not p16) (not p30)) (or p24 (not p31) p24 (not p36) (not p25)) (or p34 (not p0) (not p23) p22 (not p36)) (or (not p18) p17 (not p34) (not p34) (not p25)) (or p29 p24 (not p16) (not p1) p18) (or (not p20) (not p32) (not p25) (not p29) p32) (or p31 p0 (not p5) p27 (not p32)) (or (not p0) p30 (not p27) (not p21) (not p31)) (or p30 p2 p25 p28 (not p3)) (or (not p24) p38 p5 p14 p19) (or (not p15) (not p6) p9 p18 p36) (or p7 (not p28) (not p28) (not p4) p4) (or p39 p15 (not p25) (not p17) p16) (or p8 p22 p6 p39 p30) (or p3 (not p33) (not p37) (not p19) (not p26)) (or (not p17) (not p32) (not p34) p5 (not p8)) (or (not p3) (not p27) p19 (not p17) (not p39)) (or p6 p29 p34 p33 (not p19)) (or (not p6) p3 p33 (not p25) (not p9)) (or p12 p11 p28 p26 (not p14)) (or (not p5) (not p16) p1 p20 (not p11)) (or p33 p22 (not p16) (not p17) (not p21)) (or p17 p11 (not p3) p11 (not p4)) (or (not p23) (not p11) p17 (not p29) (not p35)) (or p6 p1 (not p23) p15 (not p39)) (or (not p5) (not p31) p37 (not p17) (not p5)) (or (not p12) (not p21) p9 p30 p6) (or (not p10) (not p27) p3 (not p13) p37) (or (not p12) (not p2) p16 p11 (not p1)) (or p23 p12 p27 (not p36) p11) (or p15 p17 (not p23) p39 p34) (or p16 (not p39) (not p19) p2 p22) (or (not p23) (not p1) (not p10) p2 p3) (or p6 (not p23) p24 (not p13) (not p19)) (or (not p7) (not p24) (not p18) p39 (not p32)) (or p36 (not p6) p2 (not p25) p20) (or (not p16) p23 (not p13) (not p28) (not p27)) (or p31 (not p5) p31 p4 (not p13)) (or (not p29) p14 (not p11) p15 (not p27)) (or p21 p21 (not p32) (not p29) (not p6)) (or (not p26) p16 p18 (not p15) (not p2)) (or p14 (not p37) (not p30) p6 (not p15)) (or p17 p25 (not p25) p20 (not p15)) (or (not p30) (not p20) (not p4) (not p11) p28) (or (not p2) p34 (not p38) p3 p1) (or p5 (not p7) p27 (not p24) (not p9)) (or p29 (not p8) (not p14) p35 (not p7)) (or (not p38) (not p9) (not p1) (not p16) p10) (or (not p12) p9 p21 p12 p15) (or p3 p14 p12 p24 (not p21)) (or (not p29) p7 (not p27) (not p21) p27) (or p25 p30 p33 (not p2) (not p18)) (or p35 (not p7) p27 (not p34) (not p7)) (or p34 p18 (not p26) (not p24) p2) (or p20 (not p6) p23 (not p22) (not p0)) (or (not p9) p7 (not p16) p33 (not p5)) (or (not p18) p17 p38 (not p36) p31) (or p37 (not p23) p10 p7 p5) (or p1 (not p25) p25 p23 (not p17)) (or (not p36) p12 p39 (not p9) (not p30)) (or p8 p22 (not p39) (not p3) p27) (or (not p5) p36 p9 (not p5) (not p35)) (or p39 (not p26) (not p22) (not p36) p10) (or p10 (not p8) p11 (not p28) (not p3)) (or p37 (not p2) (not p24) p1 (not p8)) (or p0 (not p32) p34 p25 p29) (or p19 p19 p29 p24 (not p4)) (or p19 p13 p25 p9 (not p25)) (or (not p19) (not p16) p24 (not p25) p37) (or (not p21) (not p15) (not p29) (not p19) p9) (or p15 (not p24) (not p39) p36 (not p28)) (or (not p27) (not p29) p8 (not p20) (not p2)) (or p17 (not p22) (not p17) p33 p12) (or p22 p12 p14 p33 p17) (or (not p28) p34 (not p19) p39 (not p37)) (or (not p18) p14 p27 p25 p28) (or (not p17) (not p25) p27 p35 (not p6)) (or (not p3) p27 (not p0) p32 p28) (or p38 p30 p39 p23 (not p37)) (or p20 p25 (not p9) p10 p10) (or (not p34) p0 p25 (not p34) (not p5)) (or (not p16) (not p30) (not p21) p33 (not p30)) (or (not p25) (not p3) p34 (not p29) p20) (or p9 p24 p3 p1 p23) (or (not p15) p30 (not p17) (not p9) p27) (or (not p11) p1 (not p35) p20 (not p37)) (or (not p24) (not p35) p13 p16 p24) (or (not p18) (not p2) p33 (not p19) (not p3)) (or p30 p15 p1 (not p31) (not p15)) (or p13 (not p36) p29 p13 p17) (or (not p6) p24 (not p1) p16 p29) (or (not p25) p29 p16 (not p17) (not p6)) (or (not p37) p21 p13 (not p30) (not p0)) (or (not p27) p28 (not p28) (not p10) (not p31)) (or p20 p0 p27 p34 (not p33)) (or (not p2) (not p0) (not p28) (not p4) p36) (or p6 p20 (not p29) p10 p18) (or p8 p6 (not p1) p30 p11) (or (not p1) (not p28) p35 (not p35) (not p21)) (or (not p36) (not p26) (not p5) (not p6) p12) (or p4 p0 (not p4) (not p37) (not p5)) (or p17 p1 p0 (not p12) p24) (or (not p2) p34 p3 p14 p6) (or p6 p3 (not p1) p0 (not p1)) (or p6 (not p23) p3 p31 p21) (or (not p5) (not p23) (not p3) p19 (not p31)) (or (not p22) p11 p28 p0 p34) (or (not p31) (not p29) p14 (not p35) p19) (or p0 (not p10) (not p4) p20 p5) (or p31 p15 (not p1) p9 (not p24)) (or p35 p15 (not p11) (not p34) (not p31)) (or p14 (not p23) p9 p7 p34) (or (not p9) p14 p18 p32 (not p21)) (or (not p10) (not p25) (not p33) (not p39) (not p32)) (or p38 p28 (not p18) p31 (not p15)) (or p9 (not p22) (not p8) (not p26) p24) (or (not p15) p24 p6 (not p5) p10) (or p1 (not p15) p0 (not p34) p24) (or (not p4) (not p5) (not p27) (not p28) p7) (or p38 (not p33) (not p23) (not p6) p10) (or p6 (not p7) p29 p12 (not p21)) (or (not p25) p11 (not p35) (not p25) p30) (or (not p7) (not p15) p38 p20 p30) (or p28 p25 (not p3) (not p11) p34) (or p24 (not p18) p12 p0 (not p35)) (or (not p12) (not p11) (not p25) (not p15) (not p19)) (or (not p3) (not p31) p34 p6 (not p18)) (or (not p37) (not p2) (not p9) (not p21) (not p20)) (or p6 p26 p22 (not p39) (not p28)) (or (not p35) p30 (not p17) p22 (not p25)) (or p15 p23 p25 p37 p29) (or p2 p33 (not p1) (not p10) p10) (or (not p37) p25 (not p29) (not p27) (not p15)) (or p15 p1 (not p20) (not p13) (not p23)) (or (not p17) p16 (not p13) (not p31) p21) (or p2 p10 (not p20) p35 (not p38)) (or (not p29) (not p16) p12 (not p38) p26) (or (not p13) p10 p16 (not p23) (not p3)) (or (not p9) p26 p24 (not p18) (not p18)) (or p32 p5 p31 p29 (not p11)) (or (not p2) (not p24) (not p5) p27 (not p16)) (or p29 p7 p25 (not p17) (not p3)) (or p15 p6 (not p32) p17 (not p26)) (or p8 (not p4) (not p19) (not p34) p24) (or p13 (not p31) p30 p8 p19) (or p5 (not p20) p13 p24 (not p17)) (or (not p0) p21 p32 p21 (not p8)) (or p13 (not p29) p2 p10 (not p18)) (or (not p13) (not p19) p14 (not p33) p10) (or (not p7) (not p23) p27 (not p12) (not p1)) (or (not p10) (not p25) p19 (not p38) p2) (or (not p25) p7 (not p23) p8 p20) (or p23 p12 (not p5) p39 (not p28)) (or (not p12) (not p17) (not p39) p21 (not p32)) (or (not p8) p1 (not p19) p24 p32) (or (not p2) (not p35) p2 (not p27) (not p22)) (or (not p29) p27 p10 p23 p17) (or p37 p27 (not p5) p16 (not p36)) (or (not p7) (not p2) (not p31) p2 p26) (or p29 p18 p23 (not p19) (not p6)) (or p10 (not p32) p39 p37 p26) (or (not p13) (not p34) (not p23) p29 (not p11)) (or p32 p33 (not p18) (not p34) p9) (or (not p2) p21 (not p26) p4 p7) (or p35 p16 p39 (not p24) (not p39)) (or p28 (not p0) p38 p8 p34) (or p32 (not p6) p15 (not p21) (not p39)) (or (not p28) (not p6) p32 p18 (not p13)) (or (not p26) p37 (not p39) p8 (not p14)) (or (not p19) p17 (not p10) p18 p26) (or (not p3) p10 p26 (not p11) p18) (or (not p2) p33 (not p20) p33 p25) (or p28 (not p14) (not p2) p36 p36) (or p23 (not p14) (not p22) (not p35) (not p1)) (or (not p39) (not p1) (not p25) (not p7) p26) (or p6 p14 (not p28) (not p33) p39) (or p35 (not p38) (not p23) p24 (not p4)) (or p13 (not p17) p4 p5 (not p35)) (or (not p3) (not p18) p24 p4 p27) (or p0 (not p31) p31 (not p4) (not p25)) (or (not p30) p18 p29 p10 (not p13)) (or p26 p5 p9 (not p8) (not p36)) (or (not p30) p11 p19 (not p2) (not p29)) (or (not p16) (not p17) p13 (not p12) p23) (or p28 p35 p31 (not p4) p32) (or p12 (not p1) p21 (not p13) p4) (or p21 p34 p37 (not p8) p0) (or p39 p9 (not p11) (not p28) p5) (or p39 (not p11) (not p19) p28 p6) (or p1 p25 p2 (not p2) p37) (or (not p37) (not p30) p6 p28 p20) (or (not p16) p21 (not p25) (not p1) p24) (or p29 (not p11) p3 p33 p32) (or (not p18) (not p0) (not p6) p24 (not p28)) (or (not p0) (not p13) (not p3) (not p6) (not p22)) (or p0 (not p20) p10 p29 p15) (or p2 (not p18) (not p31) (not p7) p17) (or (not p19) (not p21) (not p16) p27 (not p27)) (or p5 p15 (not p23) p35 p37) (or (not p14) (not p20) (not p7) p1 p10) (or (not p17) p25 p10 p3 p38) (or p19 (not p24) p28 p23 p16) (or p15 (not p23) p22 p5 (not p28)) (or p24 (not p22) (not p0) (not p5) (not p1)) (or (not p18) (not p2) (not p24) p26 p5) (or (not p36) (not p17) (not p27) (not p3) (not p5)) (or p6 p34 (not p33) p32 (not p18)) (or p36 p33 (not p23) p15 (not p19)) (or p6 p24 (not p34) p34 (not p3)) (or p30 (not p22) (not p10) p13 p35) (or p11 (not p15) (not p37) p15 p28) (or p23 (not p33) p2 (not p12) (not p32)) (or p22 (not p1) p32 p3 (not p32)) (or p5 (not p31) p14 (not p1) (not p12)) (or p37 p7 p5 (not p13) (not p35)) (or (not p14) p10 (not p29) (not p30) (not p13)) (or p33 (not p7) p29 p31 p13) (or p3 p15 p2 p23 (not p4)) (or p2 p15 p23 p24 p32) (or (not p38) p5 (not p33) (not p2) p20) (or (not p19) (not p22) (not p17) (not p29) (not p38)) (or p12 (not p0) p37 (not p23) (not p35)) (or p9 (not p39) p20 p39 (not p36)) (or p25 p30 (not p5) p13 (not p13)) (or (not p3) (not p23) (not p24) (not p21) (not p11)) (or p38 p11 p3 (not p35) p10) (or p11 p39 p15 p29 (not p6)) (or (not p7) p0 p15 (not p19) (not p21)) (or p6 p1 p24 (not p13) p0) (or p1 p34 p6 (not p9) (not p0)) (or p33 (not p8) (not p8) p30 p30) (or (not p30) (not p23) (not p38) (not p20) p25) (or (not p39) p0 (not p39) p26 (not p28)) (or p25 p28 (not p34) (not p27) p33) (or (not p16) p38 (not p9) p29 (not p29)) (or p31 p25 p15 (not p29) p22) (or (not p16) (not p39) p10 p1 (not p7)) (or p13 p36 p35 (not p29) p35) (or p8 (not p29) p30 p32 p14) (or p14 p24 (not p9) p31 (not p32)) (or p10 (not p32) p11 (not p36) (not p37)) (or p20 p14 (not p36) p34 p13) (or p12 p25 p19 p36 p15) (or p30 (not p39) p39 p7 (not p12)) (or (not p24) p12 (not p2) p32 (not p23)) (or (not p36) p15 p21 p35 p21) (or (not p35) p16 (not p15) p34 p0) (or p31 (not p30) p10 (not p25) (not p36)) (or (not p34) p13 p20 (not p36) (not p24)) (or (not p15) p31 (not p17) (not p37) (not p36)) (or p19 (not p26) (not p22) p19 p21) (or (not p4) p5 (not p16) p2 (not p7)) (or p14 (not p0) p34 (not p38) p21) (or p11 p29 p26 p37 (not p9)) (or p22 (not p17) (not p19) (not p8) p24) (or (not p28) p2 (not p13) (not p25) p34) (or (not p9) p39 (not p24) p15 (not p30)) (or p12 p15 p9 p18 (not p0)) (or p13 (not p12) p27 p34 p22) (or (not p12) p7 p3 (not p10) p6) (or (not p34) p35 (not p14) (not p22) p25) (or p9 p36 p30 p38 p5) (or p3 (not p21) p13 p0 (not p11)) (or (not p15) (not p3) p24 (not p23) p22) (or p23 (not p7) p27 p0 (not p14)) (or (not p25) (not p7) (not p1) p26 p17) (or (not p28) (not p18) (not p39) (not p39) (not p34)) (or p35 p36 (not p29) p12 (not p21)) (or p2 (not p1) p37 p30 (not p5)) (or p0 (not p35) (not p20) (not p22) (not p24)) (or p27 (not p24) p19 (not p12) (not p11)) (or p9 (not p23) p38 p6 (not p34)) (or (not p12) (not p35) (not p5) p8 (not p28)) (or (not p2) (not p21) (not p14) p17 (not p29)) (or (not p18) (not p19) (not p0) p29 (not p15)) (or p24 (not p20) p27 p32 p25) (or p17 p39 p24 p15 p37) (or p36 (not p25) p4 p2 (not p27)) (or p11 p35 p4 p5 (not p1)) (or (not p7) (not p34) p1 p34 p31) (or (not p28) p0 (not p32) p15 (not p12)) (or p10 p5 (not p30) (not p35) p18) (or p4 p17 p21 p6 p20) (or p13 (not p27) (not p36) (not p23) p1) (or p1 p36 (not p33) p34 (not p30)) (or (not p33) p28 (not p28) p15 (not p19)) (or p8 (not p32) (not p32) p26 p26) (or (not p21) (not p4) p13 (not p18) p1) (or p25 p23 (not p32) p17 (not p13)) (or (not p26) (not p8) (not p13) (not p24) p17) (or p10 p6 p11 (not p26) (not p27)) (or p35 (not p3) p28 (not p29) (not p22)) (or p3 (not p10) (not p21) (not p37) (not p8)) (or (not p16) (not p39) (not p3) p23 p13) (or p4 (not p9) p36 p39 p11) (or p29 p21 p10 p22 p30) (or p14 p34 (not p2) p27 p24) (or p6 p31 p36 p16 (not p4)) (or (not p14) (not p7) (not p35) (not p7) (not p37)) (or p8 p28 (not p14) (not p6) p2) (or (not p27) p4 (not p35) p36 p37) (or p25 (not p33) p16 p16 (not p39)) (or (not p16) p5 p12 p7 (not p21)) (or p24 (not p3) (not p9) (not p16) (not p30)) (or (not p7) p5 (not p5) p12 (not p6)) (or (not p6) p15 (not p34) p6 p15) (or (not p33) (not p10) (not p29) p31 p18) (or (not p34) (not p22) (not p8) (not p19) (not p11)) (or p38 p6 p20 (not p1) (not p15)) (or p32 (not p35) p6 p35 p20) (or p1 p20 (not p39) (not p19) p34) (or (not p34) (not p17) (not p5) (not p38) (not p34)) (or (not p18) (not p13) p13 p4 p22) (or p33 (not p5) p30 (not p23) p25) (or (not p25) p8 (not p1) p21 (not p7)) (or (not p12) (not p12) (not p26) (not p13) p23) (or p3 p16 (not p26) (not p30) (not p22)) (or (not p27) p32 p9 (not p1) (not p22)) (or p12 (not p7) (not p16) (not p25) (not p6)) (or (not p1) p16 (not p18) (not p20) p24) (or (not p9) (not p12) (not p19) p17 (not p37)) (or p18 (not p2) p26 p34 p34) (or (not p14) p35 p17 p25 (not p31)) (or (not p15) p25 p29 p32 p16) (or (not p29) p36 p34 (not p38) (not p1)) (or p0 (not p38) p0 p14 p28) (or p27 p18 p16 p31 p0) (or p36 p25 p8 (not p37) p4) (or p23 (not p20) (not p15) p6 p28) (or p22 p23 p32 (not p8) (not p5)) (or (not p9) (not p25) (not p10) (not p0) p35) (or p1 (not p21) p23 (not p16) (not p16)) (or (not p8) (not p36) (not p34) (not p16) (not p1)) (or (not p27) (not p26) (not p28) p9 p4) (or p22 (not p26) p13 p29 (not p15)) (or (not p15) p31 (not p31) (not p26) (not p22)) (or p31 p32 (not p7) (not p2) p30) (or (not p18) (not p0) (not p15) (not p36) (not p31)) (or (not p29) (not p16) p33 p13 p35) (or p0 (not p32) p28 (not p29) p29) (or p24 (not p13) (not p36) p21 p26) (or p29 (not p39) p22 (not p32) p1) (or p2 p15 (not p14) p7 p6) (or (not p4) (not p24) p3 (not p23) p26) (or p8 (not p24) p38 (not p32) (not p8)) (or (not p24) (not p12) (not p37) (not p19) p29) (or p39 p1 (not p14) p12 (not p3)) (or p6 p20 p28 (not p17) p12) (or p23 p31 p2 (not p37) p1) (or (not p4) (not p6) p28 p7 (not p37)) (or p30 (not p27) p5 p9 p9) (or p10 (not p35) p8 p11 (not p17)) (or p37 p2 p7 p9 p9) (or p26 (not p34) (not p20) (not p19) p16) (or p6 p23 p4 p18 p8) (or p5 p21 p26 p7 (not p25)) (or p12 p11 p24 (not p38) p39) (or (not p16) p30 p19 p33 p39) (or p33 p26 p4 p10 p22) (or (not p33) (not p18) p6 p24 p12) (or (not p5) (not p2) (not p31) p4 p8) (or (not p12) (not p11) (not p16) p7 p26) (or p11 (not p29) p7 p39 p17) (or (not p35) (not p19) (not p2) p5 p36) (or p21 p21 (not p22) (not p22) (not p21)) (or p10 (not p12) (not p4) (not p28) (not p12)) (or (not p39) (not p33) (not p10) p27 (not p29)) (or (not p18) (not p16) p4 (not p38) (not p0)) (or p24 p35 (not p31) (not p0) p1) (or (not p12) p5 p38 p16 (not p0)) (or (not p10) (not p11) (not p5) p5 (not p38)) (or p5 p37 (not p33) p2 p3) (or (not p30) p16 (not p27) (not p5) p23) (or p13 (not p33) (not p2) (not p31) (not p32)) (or (not p2) p32 (not p20) (not p5) (not p1)) (or p2 p18 (not p39) p18 (not p25)) (or (not p11) (not p20) (not p0) p13 (not p32)) (or (not p19) (not p13) p38 p3 (not p1)) (or (not p0) (not p18) p7 (not p31) (not p5)) (or (not p14) (not p31) (not p32) p39 (not p6)) (or p16 p29 (not p12) (not p4) p27) (or (not p8) (not p10) (not p32) p38 p5) (or p25 p24 p4 (not p7) p30) (or p38 p16 (not p11) p3 (not p26)) (or p7 (not p12) (not p22) p39 p37) (or p12 (not p10) (not p16) (not p16) p13) (or (not p20) p4 p22 (not p27) (not p25)) (or (not p17) (not p11) p0 p39 (not p36)) (or p20 (not p21) (not p35) (not p25) (not p16)) (or p25 (not p2) p30 (not p35) (not p17)) (or (not p13) (not p22) (not p30) (not p30) (not p34)) (or (not p30) p36 p7 (not p34) (not p34)) (or p39 p31 p14 p27 (not p23)) (or p19 p16 (not p9) p16 p38) (or p39 p30 p7 p24 p9) (or p25 p18 (not p37) p34 p25) (or (not p21) (not p27) (not p9) (not p33) p7) (or (not p34) p9 (not p12) (not p37) (not p11)) (or (not p7) p6 p7 p11 (not p37)) (or (not p13) (not p24) p12 (not p9) (not p15)) (or p39 p0 (not p17) (not p32) (not p10)) (or (not p38) (not p25) (not p5) p37 p24) (or (not p36) (not p38) p24 (not p33) p24) (or (not p14) (not p19) p29 p12 p3) (or (not p3) p35 p22 p21 (not p21)) (or (not p39) p15 p20 p3 p4) (or p36 p2 (not p29) (not p10) (not p9)) (or p14 (not p35) (not p20) (not p27) p37) (or p6 p5 p7 (not p0) (not p18)) (or p14 p28 (not p21) (not p12) (not p27)) (or (not p9) p38 p0 p1 p39) (or (not p26) (not p8) (not p33) p17 p7) (or p35 (not p38) (not p20) p30 (not p7)) (or (not p36) (not p7) (not p35) (not p24) p33) (or p2 (not p26) p34 p6 (not p2)) (or (not p39) (not p28) (not p14) (not p32) (not p38)) (or (not p29) (not p7) (not p13) (not p38) p13) (or p29 (not p24) (not p1) (not p5) (not p22)) (or (not p29) (not p0) (not p12) p38 p21) (or p6 p15 p33 p28 (not p30)) (or p0 (not p29) p16 p10 (not p22)) (or p17 p15 (not p31) (not p8) p38) (or (not p1) p33 (not p1) (not p14) p23) (or (not p17) (not p27) (not p23) (not p17) p34) (or p6 p32 p32 (not p22) p29) (or (not p8) (not p32) p14 (not p32) (not p4)) (or p25 p0 p13 p7 (not p9)) (or (not p32) p30 p35 p18 (not p29)) (or p22 (not p18) p25 p6 (not p9)) (or p33 p5 p32 p32 p19) (or p11 p39 (not p32) (not p3) p32) (or (not p20) (not p6) p18 (not p22) (not p23)) (or p15 (not p27) (not p16) (not p8) (not p29)) (or (not p5) (not p8) (not p7) (not p32) (not p33)) (or p31 (not p6) p27 p30 (not p35)) (or (not p15) (not p4) (not p27) (not p18) p23) (or p18 p19 p39 (not p10) (not p7)) (or (not p37) (not p11) p9 (not p32) (not p10)) (or p29 p34 p37 (not p32) p23) (or (not p14) (not p32) (not p23) p38 p33) (or p37 (not p32) p15 p21 (not p32)) (or p29 (not p5) (not p38) (not p18) (not p21)) (or p15 (not p10) p38 p7 (not p31)) (or p28 p37 p11 (not p30) (not p19)) (or (not p12) (not p14) (not p30) (not p32) p11) (or (not p27) p34 p31 (not p3) (not p21)) (or p36 (not p28) (not p9) (not p18) (not p9)) (or (not p19) p26 (not p6) (not p6) (not p34)) (or p2 (not p14) (not p0) p25 p14) (or p26 p39 p36 (not p38) (not p39)) (or (not p5) (not p6) p33 p24 p18) (or (not p1) (not p37) p27 (not p9) p19) (or (not p37) p30 p26 p14 (not p29)) (or p4 p33 (not p8) (not p20) p19) (or (not p17) (not p25) (not p25) (not p22) (not p18)) (or p5 p21 (not p20) (not p39) (not p0)) (or p8 (not p16) (not p33) p25 p23) (or p8 (not p1) p27 p19 p1))
)
(check-sat)
(get-model)
